Maximize
  NxS_e0 + NxS_e1 + NxS_e2 + NxS_e3 + NxS_e4 + NxS_e5 + NxS_e6 + NxS_e7 + NxS_e8 + NxS_e9
Subject to
  -S_BB_1 + S_e_0 = 0
  -S_BB_1 = 0
  -S_BB_2 + S_e_1 + S_e_2 = 0
  -S_BB_2 + S_e_0 + S_e_8 = 0
  -S_BB_3 + S_e_3 + S_e_4 = 0
  -S_BB_3 + S_e_1 = 0
  -S_BB_4 + S_e_5 = 0
  -S_BB_4 + S_e_3 = 0
  -S_BB_5 + S_e_6 = 0
  -S_BB_5 + S_e_4 = 0
  -S_BB_6 + S_e_7 = 0
  -S_BB_6 + S_e_5 + S_e_6 = 0
  -S_BB_7 + S_e_8 + S_e_9 = 0
  -S_BB_7 + S_e_2 + S_e_7 = 0
  -S_BB_8 = 0
  -S_BB_8 + S_e_9 = 0
  NxS_e0 - N <= 0
  -999 S_e_0 + NxS_e0 <= 0
  -999 S_e_0 + NxS_e0 - N >= -999
  -998 S_e_0 - N >= -999
  NxS_e1 - N <= 0
  -999 S_e_1 + NxS_e1 <= 0
  -999 S_e_1 + NxS_e1 - N >= -999
  -988 S_e_1 - N >= -999
  NxS_e2 - N <= 0
  -999 S_e_2 + NxS_e2 <= 0
  -999 S_e_2 + NxS_e2 - N >= -999
  -10 S_e_2 - N >= -999
  NxS_e3 - N <= 0
  -999 S_e_3 + NxS_e3 <= 0
  -999 S_e_3 + NxS_e3 - N >= -999
  -990 S_e_3 - N >= -999
  NxS_e4 - N <= 0
  -999 S_e_4 + NxS_e4 <= 0
  -999 S_e_4 + NxS_e4 - N >= -999
  -997 S_e_4 - N >= -999
  NxS_e5 - N <= 0
  -999 S_e_5 + NxS_e5 <= 0
  -999 S_e_5 + NxS_e5 - N >= -999
  -990 S_e_5 - N >= -999
  NxS_e6 - N <= 0
  -999 S_e_6 + NxS_e6 <= 0
  -999 S_e_6 + NxS_e6 - N >= -999
  -997 S_e_6 - N >= -999
  NxS_e7 - N <= 0
  -999 S_e_7 + NxS_e7 <= 0
  -999 S_e_7 + NxS_e7 - N >= -999
  -988 S_e_7 - N >= -999
  NxS_e8 - N <= 0
  -999 S_e_8 + NxS_e8 <= 0
  -999 S_e_8 + NxS_e8 - N >= -999
  -N >= -999
  NxS_e9 - N <= 0
  -999 S_e_9 + NxS_e9 <= 0
  -999 S_e_9 + NxS_e9 - N >= -999
  -998 S_e_9 - N >= -999
  S_e_8 = 1
Bounds
  0 <= NxS_e0 <= 1
  0 <= NxS_e1 <= 11
  0 <= NxS_e2 <= 989
  0 <= NxS_e3 <= 9
  0 <= NxS_e4 <= 2
  0 <= NxS_e5 <= 9
  0 <= NxS_e6 <= 2
  0 <= NxS_e7 <= 11
  0 <= NxS_e8 <= 999
  0 <= NxS_e9 <= 1
  0 <= N <= 999
General
  N
Binary
  S_BB_1 S_BB_2 S_BB_3 S_BB_4 S_BB_5 S_BB_6 S_BB_7 S_BB_8 S_e_0 S_e_1 S_e_2 S_e_3 S_e_4 S_e_5 S_e_6 S_e_7 S_e_8 S_e_9
End
